(declare-fun i () Int)
(declare-fun i! () Int)
(declare-fun j () Int)
(declare-fun j! () Int)
(define-fun pre-f (( parameter0 Int)( parameter1 Int))
 Bool (and (= i 1) (= j 10)))
(define-fun inv-f (( parameter0 Int)( parameter1 Int))
 Bool (= 0 0))

(assert (and (not (inv-f x y))(pre-f x y)))
(check-sat)
(get-model)
